TOUR_SECTION
1
55
183
155
100
199
137
57
39
186
19
147
87
61
122
194
167
34
132
105
50
31
101
16
62
154
151
175
149
79
145
13
24
54
187
37
69
141
107
77
46
178
174
159
119
9
111
196
72
117
106
166
64
83
94
33
70
185
120
85
59
97
36
42
73
116
129
138
8
123
184
71
114
104
49
197
124
140
26
158
156
6
162
5
102
2
7
201
170
96
118
86
38
4
165
98
161
195
152
148
89
10
103
21
125
173
56
27
190
192
12
189
17
53
157
95
20
35
160
22
182
90
45
74
44
11
200
99
28
76
133
75
58
84
128
181
65
14
198
113
47
164
168
134
115
139
108
188
127
171
131
176
193
180
146
23
52
169
150
135
88
82
48
191
29
41
177
126
18
130
81
172
60
3
68
32
121
163
43
143
142
112
51
80
63
78
110
15
136
153
30
40
109
25
93
91
67
144
66
92
179
-1
EOF